
Log started (V11.0.0) Thu May 15 06:58:22 2008

Tried aggregator 1 time.
Reduced MIP has 210 rows, 2001 columns, and 4010 nonzeros.
Presolve time =    0.02 sec.
Clique table members: 200.
MIP emphasis: balance optimality and feasibility.
MIP search method: dynamic search.
Parallel mode: none, using 1 thread.
Root relaxation solution time =    0.05 sec.

        Nodes                                         Cuts/
   Node  Left     Objective  IInf  Best Integer     Best Node    ItCnt     Gap

*     0+    0                        21893.0000     2030.1947      253   90.73%
*     0+    0                         2036.0000     2030.1947      253    0.29%
      0     0     2031.0000    14     2036.0000      Fract: 6      257    0.25%
*     0+    0                         2035.0000     2031.0000      257    0.20%
      0     0     2031.0000    16     2035.0000     Covers: 1      259    0.20%
      0     0     2031.0000    18     2035.0000     Covers: 1      262    0.20%
      0     2     2031.0000    18     2035.0000     2031.0000      262    0.20%
    100    88     2033.0000    14     2035.0000     2031.0000     3778    0.20%
    200   138    infeasible           2035.0000     2031.0000     8306    0.20%
    300   211     2032.0000    16     2035.0000     2031.0000    12571    0.20%
    400   262     2031.0000    19     2035.0000     2031.0000    15643    0.20%
    500   338     2031.0000    18     2035.0000     2031.0000    18843    0.20%
    600   351     2034.0000    15     2035.0000     2031.0000    21511    0.20%
    700   319     2034.0000    17     2035.0000     2031.0000    31118    0.20%
    800   289     2032.0000    19     2035.0000     2031.0000    38723    0.20%
    900   292     2034.0000    17     2035.0000     2031.0000    42222    0.20%
   1000   344     2033.0000    16     2035.0000     2031.0000    44417    0.20%
Elapsed time =  10.08 sec. (tree size =  0.26 MB, solutions = 3)
   1100   413     2031.0000    20     2035.0000     2031.0000    49332    0.20%
   1200   478     2032.2956    21     2035.0000     2031.0000    56338    0.20%
   1300   551     2032.0000    19     2035.0000     2031.0000    64630    0.20%
   1400   622     2031.0000    19     2035.0000     2031.0000    67758    0.20%
   1500   704     2034.0000    20     2035.0000     2031.0000    70520    0.20%
   1600   793     2032.0000    18     2035.0000     2031.0000    73444    0.20%
   1700   878     2032.0000    20     2035.0000     2031.0000    78976    0.20%
   1800   958     2033.0000    17     2035.0000     2031.0000    85876    0.20%
   1900  1017     2034.0000    16     2035.0000     2031.0000    95189    0.20%
   2000  1081     2034.0000    24     2035.0000     2031.0000   100548    0.20%
Elapsed time =  19.05 sec. (tree size =  0.88 MB, solutions = 3)
   2100  1161     2032.0000    18     2035.0000     2031.0000   103997    0.20%
   2200  1233     2033.9062    25     2035.0000     2031.0000   109324    0.20%
   2300  1297     2033.0917    21     2035.0000     2031.0000   119614    0.20%
   2400  1377     2032.0000    16     2035.0000     2031.0000   122745    0.20%
   2500  1464     2031.0011    35     2035.0000     2031.0000   124782    0.20%
   2600  1555     2032.0000    15     2035.0000     2031.0000   127323    0.20%
   2700  1638     2033.0000    18     2035.0000     2031.0000   132766    0.20%
   2800  1710     2034.0000    14     2035.0000     2031.0000   139010    0.20%
   2900  1761     2032.0000    21     2035.0000     2031.0000   148556    0.20%
   3000  1843     2034.0000    18     2035.0000     2031.0000   150843    0.20%
Elapsed time =  26.36 sec. (tree size =  1.50 MB, solutions = 3)
   3100  1938     2032.0000    14     2035.0000     2031.0000   152963    0.20%
   3200  2009     2032.0000    14     2035.0000     2031.0000   154483    0.20%
   3300  2098     2032.5657    31     2035.0000     2031.0000   158545    0.20%
   3400  2186     2032.7151    22     2035.0000     2031.0000   163290    0.20%
   3500  2271     2032.0000    18     2035.0000     2031.0000   168362    0.20%
   3600  2368     2032.0000    14     2035.0000     2031.0000   170664    0.20%
   3700  2455     2032.0000    19     2035.0000     2031.0000   174908    0.20%
   3800  2554     2033.0000    15     2035.0000     2031.0000   175873    0.20%
   3900  2640     2032.0000    16     2035.0000     2031.0000   178167    0.20%
   4000  2733     2032.0000    17     2035.0000     2031.0000   180051    0.20%
Elapsed time =  31.05 sec. (tree size =  2.24 MB, solutions = 3)
   4100  2814     2032.0000    36     2035.0000     2031.0000   181937    0.20%
   4200  2912     2032.0000    18     2035.0000     2031.0000   182923    0.20%
   4300  3004     2033.0000    12     2035.0000     2031.0000   186128    0.20%
   4400  3084     2032.0000    18     2035.0000     2031.0000   190748    0.20%
   4500  3183     2034.0000    22     2035.0000     2031.0000   191784    0.20%
   4600  3263     2032.0000    16     2035.0000     2031.0000   194210    0.20%
   4700  3362     2032.0000    18     2035.0000     2031.0000   195059    0.20%
   4800  3452     2033.0000    18     2035.0000     2031.0000   198658    0.20%
   4900  3525     2033.0000    18     2035.0000     2031.0000   206980    0.20%
   5000  3591     2034.0000    17     2035.0000     2031.0000   211834    0.20%
Elapsed time =  35.88 sec. (tree size =  2.95 MB, solutions = 3)
   5100  3682     2032.0000    20     2035.0000     2031.0000   214197    0.20%
   5200  3775     2032.0000    17     2035.0000     2031.0000   218230    0.20%
   5300  3856     2033.0000    18     2035.0000     2031.0000   224007    0.20%
   5400  3941     2032.0000    22     2035.0000     2031.0000   227913    0.20%
   5500  4040     2033.0000    14     2035.0000     2031.0000   230265    0.20%
   5600  4125     2034.0000    15     2035.0000     2031.0000   233990    0.20%
   5700  4208     2032.0000    15     2035.0000     2031.0000   237169    0.20%
   5800  4308     2032.0000    26     2035.0000     2031.0000   238848    0.20%
   5900  4405     2032.0000    27     2035.0000     2031.0000   241540    0.20%
   6000  4501     2033.0000    13     2035.0000     2031.0000   244582    0.20%
Elapsed time =  40.66 sec. (tree size =  3.76 MB, solutions = 3)
   6100  4600     2032.0000    20     2035.0000     2031.0000   245611    0.20%
   6200  4699     2033.0000    19     2035.0000     2031.0000   246565    0.20%
   6300  4795     2032.0000    18     2035.0000     2031.0000   248546    0.20%
   6400  4895     2032.0000    16     2035.0000     2031.0000   249395    0.20%
   6500  4993     2034.0000    24     2035.0000     2031.0000   250706    0.20%
   6600  5083     2032.0000    20     2035.0000     2031.0000   252748    0.20%
   6700  5183     2032.0000    18     2035.0000     2031.0000   254689    0.20%
   6800  5283     2032.0000    20     2035.0000     2031.0000   258754    0.20%
   6900  5374     2032.0000    22     2035.0000     2031.0000   261404    0.20%
   7000  5472     2034.0000    16     2035.0000     2031.0000   263541    0.20%
Elapsed time =  44.02 sec. (tree size =  4.57 MB, solutions = 3)
   7100  5559     2032.0000    25     2035.0000     2031.0000   268511    0.20%
   7200  5658     2033.0000    19     2035.0000     2031.0000   269981    0.20%
   7300  5751     2032.0000    18     2035.0000     2031.0000   271710    0.20%
   7400  5849     2033.0000    20     2035.0000     2031.0000   273703    0.20%
   7500  5933     2033.0000    14     2035.0000     2031.0000   275932    0.20%
   7600  6018     2033.0000    14     2035.0000     2031.0000   279837    0.20%
   7700  6096     2033.0000    30     2035.0000     2031.0000   286218    0.20%
   7800  6196     2033.0000    18     2035.0000     2031.0000   286985    0.20%
   7900  6288     2034.0000    18     2035.0000     2031.0000   290117    0.20%
   8000  6381     2032.0000    22     2035.0000     2031.0000   291995    0.20%
Elapsed time =  48.52 sec. (tree size =  5.33 MB, solutions = 3)
   8100  6474     2034.0000    27     2035.0000     2031.0000   294474    0.20%
   8200  6565     2033.0000    16     2035.0000     2031.0000   296021    0.20%
   8300  6663     2033.0000    28     2035.0000     2031.0000   297707    0.20%
   8400  6754     2033.0000    23     2035.0000     2031.0000   299305    0.20%
   8500  6825     2034.0000    18     2035.0000     2031.0000   304548    0.20%
   8600  6914     2033.0000    20     2035.0000     2031.0000   307080    0.20%
   8700  7009     2034.0000    16     2035.0000     2031.0000   309231    0.20%
   8800  7075    infeasible           2035.0000     2031.0000   315212    0.20%
   8900  7170     2032.0000    27     2035.0000     2031.0000   318545    0.20%
   9000  7269     2033.0000    21     2035.0000     2031.0000   319662    0.20%
Elapsed time =  53.45 sec. (tree size =  6.09 MB, solutions = 3)
   9100  7357     2032.0000    20     2035.0000     2031.0000   323222    0.20%
   9200  7457     2032.0000    24     2035.0000     2031.0000   323850    0.20%
   9300  7540     2032.0000    30     2035.0000     2031.0000   326433    0.20%
   9400  7638     2034.0000    19     2035.0000     2031.0000   328304    0.20%
   9500  7727     2033.0000    17     2035.0000     2031.0000   333199    0.20%
   9600  7812     2034.0000    17     2035.0000     2031.0000   335370    0.20%
   9700  7903     2032.0770    32     2035.0000     2031.0000   340568    0.20%
   9800  7993     2033.0000    18     2035.0000     2031.0000   341937    0.20%
   9900  8080     2031.0000    26     2035.0000     2031.0000   346700    0.20%
  10000  8170     2033.3400    25     2035.0000     2031.0000   350429    0.20%
Elapsed time =  60.67 sec. (tree size =  6.84 MB, solutions = 3)
  10100  8254     2033.0000    24     2035.0000     2031.0000   354692    0.20%
  10200  8345     2034.0000    18     2035.0000     2031.0000   357019    0.20%
  10300  8429     2032.0000    18     2035.0000     2031.0000   361314    0.20%
  10400  8524     2033.0000    18     2035.0000     2031.0000   363549    0.20%
  10500  8617     2034.0000    14     2035.0000     2031.0000   365819    0.20%
  10600  8690     2032.0092    26     2035.0000     2031.0000   369544    0.20%
  10700  8786    infeasible           2035.0000     2031.0000   370766    0.20%
  10800  8879    infeasible           2035.0000     2031.0000   373539    0.20%
  10900  8977     2033.0000    11     2035.0000     2031.0000   375888    0.20%
  11000  9067     2033.0000    14     2035.0000     2031.0000   381168    0.20%
Elapsed time =  67.00 sec. (tree size =  7.73 MB, solutions = 3)
  11100  9161     2033.0000    24     2035.0000     2031.0000   384694    0.20%
  11200  9260     2034.0000    24     2035.0000     2031.0000   387229    0.20%
  11300  9355     2033.0000    29     2035.0000     2031.0000   389918    0.20%
  11400  9450     2032.0000    20     2035.0000     2031.0000   391894    0.20%
  11500  9538     2032.0000    26     2035.0000     2031.0000   394668    0.20%
  11600  9630     2032.0000    26     2035.0000     2031.0000   398346    0.20%
  11700  9715     2032.0000    42     2035.0000     2031.0000   400926    0.20%
  11800  9811     2033.0000    20     2035.0000     2031.0000   404809    0.20%
  11900  9905     2032.0000    21     2035.0000     2031.0000   407149    0.20%
  12000 10003     2034.0000    18     2035.0000     2031.0000   408283    0.20%
Elapsed time =  73.05 sec. (tree size =  8.51 MB, solutions = 3)
  12100 10098     2032.0000    24     2035.0000     2031.0000   411003    0.20%
  12200 10193     2033.0000    12     2035.0000     2031.0000   413153    0.20%
  12300 10276     2032.0000    23     2035.0000     2031.0000   415536    0.20%
  12400 10372     2033.0000    22     2035.0000     2031.0000   417811    0.20%
  12500 10462     2032.0000    17     2035.0000     2031.0000   421475    0.20%
  12600 10551     2032.0000    38     2035.0000     2031.0000   424277    0.20%
  12700 10651     2032.0000    26     2035.0000     2031.0000   424630    0.20%
  12800 10747     2032.0000    21     2035.0000     2031.0000   426473    0.20%
  12900 10832     2034.0000    23     2035.0000     2031.0000   429447    0.20%
  13000 10926     2032.0000    28     2035.0000     2031.0000   431838    0.20%
Elapsed time =  79.31 sec. (tree size =  9.30 MB, solutions = 3)
  13100 11021     2033.0000    18     2035.0000     2031.0000   435512    0.20%
  13200 11106     2033.0000    20     2035.0000     2031.0000   440982    0.20%
  13300 11178     2032.0000    24     2035.0000     2031.0000   444938    0.20%
  13400 11276     2034.0000    18     2035.0000     2031.0000   446736    0.20%
  13500 11370     2033.0000    16     2035.0000     2031.0000   450543    0.20%
  13600 11464     2032.0000    24     2035.0000     2031.0000   452940    0.20%
  13700 11561     2033.0000    21     2035.0000     2031.0000   456735    0.20%
  13800 11647     2034.0000    14     2035.0000     2031.0000   460820    0.20%
  13900 11717     2034.0000    10     2035.0000     2031.0000   468109    0.20%
  14000 11817     2034.0000    18     2035.0000     2031.0000   468740    0.20%
Elapsed time =  88.41 sec. (tree size = 10.07 MB, solutions = 3)
  14100 11899     2034.0000    18     2035.0000     2031.0000   474525    0.20%
  14200 11978     2034.0000    10     2035.0000     2031.0000   481259    0.20%
  14300 12069     2032.0000    32     2035.0000     2031.0000   485846    0.20%
  14400 12167     2034.0000    10     2035.0000     2031.0000   487010    0.20%
  14500 12256     2032.0000    38     2035.0000     2031.0000   492748    0.20%
  14600 12355     2033.0000    30     2035.0000     2031.0000   495341    0.20%
  14700 12449     2032.0000    21     2035.0000     2031.0000   501313    0.20%
  14800 12544     2033.0000    20     2035.0000     2031.0000   503812    0.20%
  14900 12637     2033.0000    16     2035.0000     2031.0000   508804    0.20%
  15000 12727     2032.0000    20     2035.0000     2031.0000   513531    0.20%
Elapsed time =  98.58 sec. (tree size = 10.86 MB, solutions = 3)
  15100 12825     2034.0000    18     2035.0000     2031.0000   516550    0.20%
  15200 12919     2033.0000    22     2035.0000     2031.0000   522638    0.20%
  15300 13013     2032.0000    27     2035.0000     2031.0000   525652    0.20%
  15400 13113     2032.0000    22     2035.0000     2031.0000   527329    0.20%
  15500 13212     2033.0000    25     2035.0000     2031.0000   528862    0.20%
  15600 13286     2033.0000    29     2035.0000     2031.0000   535177    0.20%
  15700 13384     2034.0000    17     2035.0000     2031.0000   537572    0.20%
  15800 13472     2034.0000    22     2035.0000     2031.0000   540408    0.20%
  15900 13562     2034.0000    17     2035.0000     2031.0000   544042    0.20%
  16000 13649     2032.0000    41     2035.0000     2031.0000   548782    0.20%
Elapsed time = 106.22 sec. (tree size = 11.67 MB, solutions = 3)
  16100 13745     2034.0000    10     2035.0000     2031.0000   553476    0.20%
  16200 13838     2034.0000    14     2035.0000     2031.0000   555932    0.20%
  16300 13925     2034.0000    27     2035.0000     2031.0000   559552    0.20%
  16400 14009     2034.0000    20     2035.0000     2031.0000   563142    0.20%
  16500 14103     2034.0000    21     2035.0000     2031.0000   568275    0.20%
  16600 14193        cutoff           2035.0000     2031.0000   571049    0.20%
  16700 14284     2034.0000    10     2035.0000     2031.0000   573951    0.20%
  16800 14378     2033.0000    24     2035.0000     2031.0000   576467    0.20%
  16900 14457     2034.0000    10     2035.0000     2031.0000   581505    0.20%
  17000 14543     2034.0000    10     2035.0000     2031.0000   587120    0.20%
Elapsed time = 116.53 sec. (tree size = 12.46 MB, solutions = 3)
  17100 14638     2033.0000    20     2035.0000     2031.0000   590140    0.20%
  17200 14731     2032.0000    20     2035.0000     2031.0000   592572    0.20%
  17300 14828     2033.0000    14     2035.0000     2031.0000   596775    0.20%
  17400 14916     2033.0000    34     2035.0000     2031.0000   602278    0.20%
  17500 15016     2033.0000    24     2035.0000     2031.0000   603084    0.20%
  17600 15107     2032.0000    24     2035.0000     2031.0000   607769    0.20%
  17700 15200     2034.0000    14     2035.0000     2031.0000   609474    0.20%
  17800 15292     2033.0000    31     2035.0000     2031.0000   612451    0.20%
  17900 15387     2033.0000    18     2035.0000     2031.0000   615867    0.20%
  18000 15481     2032.0000    26     2035.0000     2031.0000   618322    0.20%
Elapsed time = 124.41 sec. (tree size = 13.25 MB, solutions = 3)
  18100 15578     2033.0000    18     2035.0000     2031.0000   621125    0.20%
  18200 15668     2032.0000    12     2035.0000     2031.0000   625426    0.20%
  18300 15767     2033.0000    18     2035.0000     2031.0000   627629    0.20%
  18400 15850     2032.0000    38     2035.0000     2031.0000   635329    0.20%
* 18473+12060                         2034.0000     2031.0000   640180    0.15%
  18500 12081     2033.0000     8     2034.0000     2031.0000   642034    0.15%
  18600 12163     2033.0000     6     2034.0000     2031.0000   646881    0.15%
  18700 12255     2033.0000    14     2034.0000     2031.0000   650290    0.15%
  18800 12344     2032.0000    22     2034.0000     2031.0000   657092    0.15%
  18900 12443     2033.0000    32     2034.0000     2031.0000   658816    0.15%
* 18983+ 6327                         2033.0000     2031.0000   663875    0.10%
  19000  6342     2032.0000    34     2033.0000     2031.0000   666408    0.10%
Elapsed time = 136.14 sec. (tree size =  5.28 MB, solutions = 5)
  19100  6435     2032.0000    22     2033.0000     2031.0000   672601    0.10%
  19200  6519     2032.0000    20     2033.0000     2031.0000   679303    0.10%
  19300  6573    infeasible           2033.0000     2031.0000   694817    0.10%
  19400  6660     2032.0000    28     2033.0000     2031.0000   699929    0.10%
  19500  6749    infeasible           2033.0000     2031.0000   710549    0.10%
  19600  6837     2032.0000    22     2033.0000     2031.0000   721893    0.10%
  19700  6927     2032.0000    38     2033.0000     2031.0000   731339    0.10%
  19800  6999     2032.0000    35     2033.0000     2031.0000   746646    0.10%
  19900  7083     2032.0000    18     2033.0000     2031.0000   761850    0.10%
  20000  7168     2032.0000    33     2033.0000     2031.0000   768942    0.10%
Elapsed time = 161.05 sec. (tree size =  6.00 MB, solutions = 5)
  20100  7251     2032.0000    70     2033.0000     2031.0000   777268    0.10%
  20200  7328     2032.0000    40     2033.0000     2031.0000   789235    0.10%
  20300  7406     2031.0929    58     2033.0000     2031.0000   805750    0.10%
  20400  7506     2032.0000    14     2033.0000     2031.0000   807016    0.10%
* 20483+  239                         2032.0000     2031.0000   810711    0.05%
  20500   221    infeasible           2032.0000     2031.0000   819677    0.05%
  20600   238     2031.0000    18     2032.0000     2031.0000   848631    0.05%
  20700   198    infeasible           2032.0000     2031.0000   894182    0.05%
  20800   200    infeasible           2032.0000     2031.0000   936879    0.05%
  20900   165     2031.0000    84     2032.0000     2031.0000   990053    0.05%
  21000   155     2031.0000    83     2032.0000     2031.0000  1045367    0.05%
Elapsed time = 240.02 sec. (tree size =  0.36 MB, solutions = 6)
  21100   191     2031.0000    99     2032.0000     2031.0000  1092483    0.05%
  21200   202     2031.0000    77     2032.0000     2031.0000  1154305    0.05%
  21300   236     2031.0000    35     2032.0000     2031.0000  1197737    0.05%
  21400   240    infeasible           2032.0000     2031.0000  1260308    0.05%
  21500   215    infeasible           2032.0000     2031.0000  1333673    0.05%
  21600   220    infeasible           2032.0000     2031.0000  1402977    0.05%
  21700   214    infeasible           2032.0000     2031.0000  1476901    0.05%
  21800   177    infeasible           2032.0000     2031.0000  1560746    0.05%
  21900   166     2031.0000    40     2032.0000     2031.0000  1635465    0.05%
  22000   197    infeasible           2032.0000     2031.0000  1687868    0.05%
Elapsed time = 496.88 sec. (tree size =  0.40 MB, solutions = 6)
* 22083+    0                         2031.0000     2031.0000  1752131    0.00%

Cover cuts applied:  871
Mixed integer rounding cuts applied:  15
Gomory fractional cuts applied:  9

Solution pool: 7 solutions saved.

MIP - Integer optimal solution:  Objective = 2.0310000000e+003
Solution time =  524.98 sec.  Iterations = 1752131  Nodes = 22083


Incumbent solution
Variable Name           Solution Value
Cmax                       2031.000000
X_1_1                         1.000000
X_2_8                         1.000000
X_3_6                         1.000000
X_4_8                         1.000000
X_5_3                         1.000000
X_6_5                         1.000000
X_7_8                         1.000000
X_8_10                        1.000000
X_9_6                         1.000000
X_10_5                        1.000000
X_11_10                       1.000000
X_12_9                        1.000000
X_13_4                        1.000000
X_14_1                        1.000000
X_15_8                        1.000000
X_16_9                        1.000000
X_17_6                        1.000000
X_18_10                       1.000000
X_19_7                        1.000000
X_20_2                        1.000000
X_21_4                        1.000000
X_22_9                        1.000000
X_23_5                        1.000000
X_24_2                        1.000000
X_25_1                        1.000000
X_26_5                        1.000000
X_27_2                        1.000000
X_28_3                        1.000000
X_29_8                        1.000000
X_30_3                        1.000000
X_31_10                       1.000000
X_32_2                        1.000000
X_33_10                       1.000000
X_34_6                        1.000000
X_35_10                       1.000000
X_36_10                       1.000000
X_37_3                        1.000000
X_38_1                        1.000000
X_39_7                        1.000000
X_40_6                        1.000000
X_41_2                        1.000000
X_42_3                        1.000000
X_43_6                        1.000000
X_44_3                        1.000000
X_45_4                        1.000000
X_46_10                       1.000000
X_47_9                        1.000000
X_48_10                       1.000000
X_49_8                        1.000000
X_50_2                        1.000000
X_51_2                        1.000000
X_52_3                        1.000000
X_53_2                        1.000000
X_54_8                        1.000000
X_55_7                        1.000000
X_56_5                        1.000000
X_57_7                        1.000000
X_58_2                        1.000000
X_59_1                        1.000000
X_60_5                        1.000000
X_61_5                        1.000000
X_62_9                        1.000000
X_63_1                        1.000000
X_64_5                        1.000000
X_65_5                        1.000000
X_66_2                        1.000000
X_67_6                        1.000000
X_68_7                        1.000000
X_69_10                       1.000000
X_70_6                        1.000000
X_71_7                        1.000000
X_72_4                        1.000000
X_73_2                        1.000000
X_74_3                        1.000000
X_75_9                        1.000000
X_76_5                        1.000000
X_77_9                        1.000000
X_78_5                        1.000000
X_79_1                        1.000000
X_80_1                        1.000000
X_81_8                        1.000000
X_82_3                        1.000000
X_83_8                        1.000000
X_84_9                        1.000000
X_85_8                        1.000000
X_86_4                        1.000000
X_87_7                        1.000000
X_88_2                        1.000000
X_89_3                        1.000000
X_90_9                        1.000000
X_91_4                        1.000000
X_92_3                        1.000000
X_93_6                        1.000000
X_94_5                        1.000000
X_95_9                        1.000000
X_96_4                        1.000000
X_97_8                        1.000000
X_98_6                        1.000000
X_99_7                        1.000000
X_100_7                       1.000000
X_101_6                       1.000000
X_102_2                       1.000000
X_103_3                       1.000000
X_104_3                       1.000000
X_105_7                       1.000000
X_106_8                       1.000000
X_107_7                       1.000000
X_108_4                       1.000000
X_109_8                       1.000000
X_110_3                       1.000000
X_111_7                       1.000000
X_112_4                       1.000000
X_113_1                       1.000000
X_114_2                       1.000000
X_115_1                       1.000000
X_116_1                       1.000000
X_117_10                      1.000000
X_118_8                       1.000000
X_119_8                       1.000000
X_120_7                       1.000000
X_121_10                      1.000000
X_122_1                       1.000000
X_123_8                       1.000000
X_124_7                       1.000000
X_125_5                       1.000000
X_126_10                      1.000000
X_127_7                       1.000000
X_128_3                       1.000000
X_129_1                       1.000000
X_130_3                       1.000000
X_131_6                       1.000000
X_132_6                       1.000000
X_133_10                      1.000000
X_134_3                       1.000000
X_135_4                       1.000000
X_136_2                       1.000000
X_137_5                       1.000000
X_138_4                       1.000000
X_139_8                       1.000000
X_140_10                      1.000000
X_141_3                       1.000000
X_142_5                       1.000000
X_143_4                       1.000000
X_144_5                       1.000000
X_145_1                       1.000000
X_146_9                       1.000000
X_147_10                      1.000000
X_148_4                       1.000000
X_149_4                       1.000000
X_150_7                       1.000000
X_151_5                       1.000000
X_152_1                       1.000000
X_153_2                       1.000000
X_154_9                       1.000000
X_155_7                       1.000000
X_156_1                       1.000000
X_157_4                       1.000000
X_158_7                       1.000000
X_159_10                      1.000000
X_160_8                       1.000000
X_161_1                       1.000000
X_162_6                       1.000000
X_163_2                       1.000000
X_164_6                       1.000000
X_165_9                       1.000000
X_166_9                       1.000000
X_167_6                       1.000000
X_168_9                       1.000000
X_169_3                       1.000000
X_170_10                      1.000000
X_171_8                       1.000000
X_172_4                       1.000000
X_173_2                       1.000000
X_174_4                       1.000000
X_175_4                       1.000000
X_176_6                       1.000000
X_177_10                      1.000000
X_178_4                       1.000000
X_179_9                       1.000000
X_180_2                       1.000000
X_181_3                       1.000000
X_182_5                       1.000000
X_183_1                       1.000000
X_184_9                       1.000000
X_185_1                       1.000000
X_186_10                      1.000000
X_187_2                       1.000000
X_188_6                       1.000000
X_189_5                       1.000000
X_190_9                       1.000000
X_191_9                       1.000000
X_192_4                       1.000000
X_193_6                       1.000000
X_194_6                       1.000000
X_195_8                       1.000000
X_196_7                       1.000000
X_197_5                       1.000000
X_198_9                       1.000000
X_199_7                       1.000000
X_200_1                       1.000000
All other variables in the range 1-2001 are 0.
